c cnf generated by mark.reason.ac.CompilerAce written by Mark Chavira
c
c Following are a few statistics:
c
c     Number of potentials               : 7
c     Number of constant potentials      : 0
c     Number of root potentials          : 1
c     Number of zero-one root potentials : 0
c     Number of literals                 : 100
c
p cnf 39 39
1 2 0
-2 -1 0
-2 3 0
-1 4 0
5 6 0
-6 -5 0
-6 -1 7 0
-5 -2 8 0
-6 -2 9 0
-5 -1 10 0
11 12 0
-12 -11 0
-12 -1 13 0
-12 -2 14 0
-11 -2 15 0
-11 -1 16 0
17 18 0
-18 -17 0
-18 -1 19 0
-18 -2 20 0
-17 -2 21 0
-17 -1 22 0
23 24 0
-24 -23 0
-24 -2 25 0
-24 -1 26 0
-23 -1 27 0
-23 -2 28 0
29 30 0
-30 -29 0
-30 -2 31 0
-30 -1 32 0
-29 -1 33 0
-29 -2 34 0
35 36 0
-36 -35 0
-36 -2 37 0
-1 38 0
-35 -2 39 0
